75
1 0 2
2 0 7
3 0 10
3 1 1
4 0 5
5 2 3
5 3 9
5 4 2
6 0 9
6 1 10
6 3 2
6 4 5
6 5 1
7 1 10
7 3 7
7 5 5
8 2 5
8 4 10
8 5 4
9 0 1
9 2 5
9 4 3
9 5 10
9 8 6
10 0 4
10 1 4
10 4 6
10 5 3
10 6 7
10 9 9
11 1 4
11 3 10
11 7 7
11 8 3
11 9 10
12 0 1
12 2 1
12 3 9
12 4 1
12 5 6
12 8 9
12 10 4
12 11 5
13 1 9
13 3 2
13 6 4
13 7 10
13 9 2
13 11 3
14 0 2
14 3 8
14 5 7
14 8 5
14 9 6
14 10 3
14 12 2
14 13 7
15 1 8
15 9 10
15 12 1
16 0 9
16 1 10
16 3 4
16 5 1
16 6 9
16 10 3
16 12 4
16 13 5
17 2 8
17 4 3
17 6 4
17 7 9
17 8 1
17 9 7
17 13 4
17 14 8
17 16 10
18 0 7
18 2 1
18 6 7
18 7 4
18 8 4
18 10 4
18 12 5
18 14 2
18 17 6
19 0 6
19 1 2
19 2 1
19 4 1
19 7 4
19 10 7
19 12 6
19 13 10
19 14 10
19 18 9
20 0 3
20 4 8
20 6 9
20 7 7
20 9 8
20 10 7
20 13 2
20 14 4
20 16 8
20 18 5
21 1 8
21 3 1
21 5 9
21 7 7
21 10 1
21 11 7
21 12 1
21 13 6
21 15 9
21 16 7
21 18 7
21 20 5
22 1 5
22 3 5
22 4 10
22 6 10
22 10 4
22 12 5
22 14 7
22 15 4
22 17 5
22 18 5
22 19 6
22 20 2
22 21 3
23 2 6
23 6 8
23 7 1
23 12 3
23 13 2
23 14 4
23 15 9
23 16 4
23 17 3
23 19 10
23 20 9
24 0 6
24 1 1
24 2 8
24 4 7
24 5 7
24 6 2
24 7 3
24 8 1
24 10 9
24 14 9
24 15 3
24 16 4
24 17 5
24 19 7
24 22 8
25 0 10
25 4 10
25 6 5
25 7 7
25 9 9
25 10 3
25 11 2
25 12 8
25 14 1
25 15 7
25 16 5
25 17 9
25 18 4
25 20 7
25 21 7
25 23 7
25 24 1
26 1 5
26 3 4
26 9 10
26 12 9
26 13 3
26 18 5
26 20 8
26 21 2
26 22 1
26 23 3
26 25 7
27 2 1
27 4 5
27 5 5
27 7 5
27 8 10
27 9 5
27 10 1
27 13 9
27 14 5
27 15 1
27 19 5
27 20 1
27 25 9
28 2 10
28 5 1
28 6 4
28 7 7
28 8 3
28 12 10
28 13 3
28 14 3
28 15 9
28 16 8
28 18 5
28 22 3
28 23 9
28 25 3
28 26 4
28 27 10
29 4 8
29 5 8
29 8 7
29 10 3
29 11 5
29 12 8
29 14 3
29 16 1
29 17 10
29 19 2
29 21 5
29 22 6
29 25 7
29 27 6
29 28 7
30 0 7
30 1 5
30 6 7
30 10 10
30 11 3
30 13 5
30 14 1
30 15 8
30 17 1
30 18 9
30 19 7
30 21 3
30 22 6
30 23 1
30 24 6
30 26 10
30 28 1
30 29 9
31 1 9
31 4 9
31 8 9
31 9 8
31 10 1
31 11 4
31 12 2
31 13 5
31 15 8
31 16 3
31 17 10
31 19 6
31 21 7
31 22 3
31 29 3
31 30 7
32 0 1
32 1 7
32 2 3
32 3 6
32 4 10
32 8 2
32 10 5
32 11 4
32 14 1
32 15 9
32 17 3
32 18 7
32 19 10
32 20 8
32 23 9
32 29 1
32 30 5
33 0 4
33 1 10
33 3 7
33 4 8
33 7 8
33 8 4
33 14 5
33 18 4
33 20 5
33 21 2
33 23 3
33 25 9
33 26 10
33 27 3
33 28 3
33 30 7
34 0 5
34 1 1
34 2 10
34 3 3
34 5 9
34 6 3
34 7 10
34 8 8
34 12 8
34 14 9
34 16 3
34 18 4
34 24 9
34 25 10
34 26 6
34 28 10
34 30 4
34 32 2
34 33 3
35 0 2
35 1 6
35 3 5
35 7 4
35 8 5
35 9 7
35 10 2
35 14 10
35 16 2
35 20 3
35 21 1
35 25 2
35 30 2
35 31 10
36 2 10
36 5 1
36 6 8
36 10 2
36 14 7
36 16 3
36 17 7
36 19 2
36 20 10
36 21 6
36 22 5
36 24 2
36 25 10
36 26 1
36 27 8
36 29 5
36 31 2
36 32 1
36 33 1
36 34 5
36 35 10
37 1 3
37 6 8
37 7 8
37 8 9
37 10 3
37 12 5
37 13 3
37 14 6
37 18 9
37 21 6
37 22 4
37 25 6
37 33 4
37 35 9
37 36 4
38 2 1
38 4 6
38 5 6
38 8 10
38 9 4
38 10 9
38 12 4
38 16 5
38 18 4
38 19 3
38 22 9
38 23 8
38 24 9
38 30 2
38 31 10
38 32 8
38 33 1
39 5 4
39 8 9
39 16 4
39 19 9
39 20 9
39 21 1
39 23 9
39 29 9
39 31 4
39 35 5
39 37 3
40 1 3
40 3 10
40 5 10
40 9 2
40 12 2
40 13 5
40 18 3
40 20 5
40 22 3
40 24 7
40 27 2
40 34 5
40 35 10
40 36 9
40 37 4
40 38 8
40 39 1
41 0 2
41 2 6
41 3 7
41 4 5
41 6 5
41 9 10
41 11 10
41 17 10
41 18 5
41 20 4
41 21 2
41 22 8
41 23 3
41 27 9
41 28 9
41 33 8
41 37 1
42 0 8
42 6 2
42 14 4
42 15 10
42 17 4
42 19 10
42 21 1
42 22 9
42 24 8
42 26 4
42 27 1
42 29 8
42 30 8
42 31 8
42 32 7
42 33 10
42 35 2
42 37 6
42 39 5
42 40 8
43 1 9
43 3 1
43 5 7
43 7 5
43 8 10
43 11 9
43 13 1
43 15 5
43 17 10
43 18 8
43 19 3
43 21 10
43 27 4
43 28 5
43 29 3
43 32 6
43 33 1
43 39 3
43 40 5
43 41 1
44 1 4
44 2 9
44 5 3
44 10 7
44 12 7
44 13 6
44 14 3
44 18 5
44 22 3
44 24 9
44 25 5
44 27 6
44 28 1
44 29 7
44 30 5
44 31 7
44 32 8
44 35 3
44 36 4
44 37 3
44 38 7
44 43 3
45 3 9
45 7 4
45 12 3
45 15 6
45 19 3
45 20 7
45 21 4
45 22 6
45 23 3
45 30 8
45 32 4
45 33 3
45 34 6
45 36 1
45 37 6
45 38 4
45 39 10
45 40 10
45 41 3
45 42 9
45 43 10
45 44 8
46 1 10
46 5 2
46 9 5
46 10 9
46 12 6
46 14 10
46 15 4
46 16 3
46 19 2
46 20 4
46 21 4
46 22 10
46 27 3
46 29 2
46 31 1
46 32 4
46 33 1
46 34 6
46 35 9
46 36 5
46 37 2
46 41 9
46 42 4
46 44 10
46 45 6
47 0 5
47 1 7
47 3 4
47 5 5
47 8 10
47 9 8
47 10 2
47 11 4
47 12 10
47 13 3
47 14 3
47 15 9
47 16 9
47 18 1
47 19 4
47 20 2
47 21 2
47 22 7
47 23 7
47 24 4
47 25 1
47 28 7
47 30 7
47 32 4
47 35 3
47 39 9
47 41 6
47 46 3
48 0 2
48 2 4
48 3 3
48 4 9
48 5 6
48 7 6
48 8 3
48 12 3
48 13 10
48 16 2
48 17 3
48 19 6
48 20 5
48 23 4
48 25 4
48 32 5
48 36 3
48 38 10
48 40 2
48 41 9
48 43 9
48 44 6
48 45 7
48 46 8
48 47 6
49 1 9
49 2 2
49 4 3
49 7 6
49 8 2
49 10 10
49 13 2
49 14 1
49 16 10
49 17 7
49 19 5
49 20 6
49 21 3
49 22 2
49 23 6
49 24 10
49 25 6
49 26 6
49 30 2
49 31 8
49 33 5
49 34 1
49 35 9
49 36 1
49 37 7
49 40 8
49 41 5
49 42 8
49 43 5
49 44 2
49 46 10
49 47 6
49 48 10
50 0 1
50 1 3
50 4 7
50 7 10
50 8 3
50 10 1
50 14 3
50 15 9
50 16 6
50 18 6
50 20 1
50 21 9
50 23 7
50 25 3
50 26 3
50 27 6
50 29 9
50 30 4
50 31 6
50 34 3
50 35 4
50 38 6
50 39 1
50 42 5
50 43 6
50 44 7
50 46 8
50 47 3
50 48 4
51 0 10
51 1 5
51 3 7
51 5 7
51 11 8
51 14 1
51 15 8
51 16 1
51 19 10
51 21 10
51 24 10
51 25 8
51 30 6
51 31 9
51 32 6
51 34 2
51 35 9
51 37 2
51 40 2
51 42 2
51 48 5
52 0 2
52 1 9
52 3 6
52 7 10
52 10 1
52 13 4
52 14 6
52 15 6
52 16 5
52 18 8
52 19 6
52 21 8
52 24 1
52 25 10
52 26 7
52 27 8
52 32 6
52 35 1
52 36 1
52 38 3
52 39 6
52 40 8
52 42 6
52 44 3
52 45 3
52 48 5
53 2 7
53 3 1
53 6 2
53 7 4
53 9 5
53 10 4
53 12 8
53 16 9
53 19 10
53 23 10
53 25 8
53 30 7
53 31 7
53 32 8
53 33 8
53 34 9
53 35 5
53 42 7
53 45 10
53 47 7
54 6 2
54 7 2
54 9 7
54 12 6
54 13 9
54 15 2
54 16 8
54 17 2
54 19 3
54 20 8
54 21 10
54 22 3
54 23 1
54 25 4
54 26 5
54 27 9
54 28 7
54 30 2
54 32 5
54 33 3
54 34 7
54 36 8
54 38 9
54 39 8
54 41 3
54 45 8
54 47 10
54 48 10
54 50 5
54 51 2
54 53 8
55 0 10
55 2 2
55 4 8
55 8 2
55 9 4
55 11 4
55 12 3
55 13 1
55 14 7
55 15 1
55 18 4
55 20 10
55 28 2
55 32 6
55 34 10
55 38 8
55 41 4
55 44 8
55 46 4
55 48 8
55 49 7
55 51 4
56 0 9
56 1 9
56 3 9
56 6 4
56 10 2
56 12 2
56 13 8
56 15 9
56 18 6
56 20 8
56 21 3
56 23 5
56 24 5
56 25 2
56 26 5
56 27 8
56 28 5
56 31 9
56 33 2
56 38 5
56 42 8
56 45 6
56 47 6
56 48 7
56 55 6
57 1 9
57 2 3
57 4 8
57 5 10
57 7 4
57 8 8
57 12 6
57 14 2
57 17 10
57 19 4
57 20 4
57 22 1
57 23 6
57 25 10
57 29 4
57 30 6
57 33 5
57 34 8
57 37 1
57 40 2
57 41 9
57 43 8
57 46 1
57 48 4
57 49 10
57 51 2
57 55 4
57 56 10
58 2 7
58 4 6
58 7 2
58 8 8
58 9 4
58 10 2
58 11 2
58 13 1
58 14 4
58 16 5
58 17 10
58 18 9
58 21 8
58 23 5
58 25 2
58 26 9
58 27 9
58 30 9
58 35 5
58 37 1
58 38 5
58 40 2
58 44 10
58 46 7
58 51 5
58 54 4
58 57 7
59 0 6
59 1 6
59 2 4
59 3 4
59 4 3
59 9 6
59 10 1
59 12 9
59 14 1
59 15 2
59 18 8
59 20 4
59 24 10
59 25 10
59 27 1
59 28 7
59 30 7
59 33 1
59 34 9
59 36 5
59 42 1
59 44 10
59 47 4
59 50 10
59 51 6
59 55 10
59 56 7
60 0 8
60 2 1
60 5 6
60 6 8
60 7 4
60 11 2
60 12 3
60 13 7
60 14 10
60 15 10
60 18 2
60 20 1
60 26 7
60 29 9
60 31 9
60 32 6
60 33 2
60 34 3
60 43 1
60 44 7
60 46 10
60 47 3
60 48 4
60 50 5
60 51 9
60 52 10
60 54 1
60 55 5
60 56 10
60 59 1
61 0 7
61 5 7
61 9 4
61 10 2
61 11 5
61 13 7
61 14 8
61 16 3
61 18 1
61 19 9
61 20 1
61 23 8
61 25 4
61 29 5
61 31 10
61 32 7
61 33 5
61 34 7
61 35 10
61 39 5
61 40 9
61 45 7
61 47 10
61 48 6
61 52 6
61 57 7
61 58 2
62 0 2
62 1 3
62 4 8
62 5 3
62 6 7
62 7 8
62 8 2
62 9 1
62 10 5
62 14 8
62 18 4
62 26 7
62 28 8
62 30 8
62 32 4
62 33 1
62 34 6
62 35 4
62 39 6
62 40 8
62 41 7
62 42 6
62 43 3
62 46 4
62 48 7
62 53 8
62 55 10
62 59 3
62 61 1
63 0 10
63 3 3
63 4 3
63 6 7
63 7 2
63 10 8
63 13 5
63 15 7
63 16 1
63 17 6
63 25 4
63 26 2
63 28 4
63 29 7
63 30 3
63 32 6
63 33 8
63 34 6
63 35 7
63 37 2
63 39 1
63 42 9
63 44 2
63 45 7
63 47 6
63 48 6
63 49 7
63 51 9
63 52 10
63 53 4
63 55 10
63 56 2
63 57 6
63 59 4
63 61 6
64 1 3
64 4 3
64 6 5
64 15 4
64 16 7
64 22 3
64 24 4
64 26 9
64 27 10
64 29 6
64 31 4
64 34 5
64 37 7
64 39 9
64 40 7
64 41 3
64 42 5
64 43 1
64 48 4
64 49 2
64 50 3
64 51 9
64 52 10
64 53 5
64 54 2
64 55 2
64 63 6
65 0 4
65 1 8
65 7 7
65 9 7
65 12 8
65 13 7
65 14 7
65 15 4
65 16 8
65 17 7
65 20 4
65 24 1
65 26 6
65 27 5
65 28 5
65 30 5
65 32 7
65 33 1
65 34 3
65 39 5
65 40 2
65 41 2
65 42 10
65 43 6
65 46 10
65 49 1
65 50 1
65 54 3
65 56 5
65 58 3
65 59 10
65 60 6
65 61 7
66 0 5
66 2 9
66 4 9
66 7 10
66 8 9
66 13 4
66 14 9
66 16 3
66 17 3
66 19 3
66 20 9
66 21 1
66 22 6
66 24 5
66 25 10
66 26 3
66 28 4
66 32 4
66 34 8
66 36 9
66 37 8
66 39 1
66 43 3
66 44 3
66 46 5
66 48 1
66 50 4
66 52 7
66 53 9
66 55 6
66 57 8
66 58 7
66 59 4
66 61 3
66 63 7
67 0 2
67 2 6
67 9 4
67 10 1
67 11 10
67 12 2
67 13 5
67 14 3
67 16 6
67 17 7
67 20 5
67 21 4
67 22 9
67 24 4
67 25 10
67 26 10
67 27 4
67 28 6
67 29 2
67 30 2
67 32 9
67 35 6
67 38 5
67 39 8
67 40 6
67 42 7
67 46 8
67 47 6
67 49 2
67 50 10
67 51 5
67 52 2
67 54 1
67 57 4
67 58 3
67 61 2
67 62 7
67 63 3
67 64 1
67 66 5
68 0 1
68 2 7
68 3 9
68 5 2
68 7 4
68 10 10
68 11 9
68 13 5
68 16 8
68 17 3
68 18 1
68 25 4
68 26 10
68 28 5
68 29 3
68 37 5
68 38 10
68 41 4
68 43 1
68 44 10
68 45 5
68 48 3
68 49 4
68 51 3
68 53 3
68 54 8
68 56 10
68 57 7
68 58 10
68 60 6
68 64 6
68 67 2
69 0 5
69 1 9
69 2 7
69 4 3
69 7 4
69 8 2
69 9 6
69 10 1
69 11 3
69 12 7
69 13 9
69 14 10
69 16 4
69 17 9
69 20 8
69 21 2
69 22 5
69 25 2
69 26 4
69 28 7
69 30 2
69 32 5
69 33 7
69 35 8
69 36 8
69 37 9
69 39 10
69 41 6
69 46 1
69 48 10
69 50 3
69 51 7
69 52 1
69 55 2
69 56 9
69 57 9
69 59 8
69 60 4
69 61 3
69 64 3
69 65 7
69 66 4
70 3 4
70 6 9
70 8 6
70 10 6
70 11 10
70 13 5
70 14 3
70 16 6
70 19 10
70 20 7
70 21 6
70 23 2
70 25 10
70 26 3
70 27 4
70 30 8
70 31 6
70 32 10
70 33 5
70 37 6
70 39 10
70 40 6
70 41 8
70 43 5
70 44 10
70 47 4
70 48 10
70 49 2
70 51 5
70 52 9
70 53 10
70 54 1
70 55 3
70 58 1
70 59 10
70 61 8
70 62 7
70 63 2
70 66 9
70 69 7
71 0 2
71 3 5
71 4 9
71 7 10
71 9 6
71 10 6
71 13 2
71 15 4
71 18 1
71 19 7
71 21 9
71 22 9
71 23 3
71 25 4
71 28 2
71 30 8
71 31 7
71 33 9
71 34 5
71 35 2
71 36 2
71 38 7
71 43 2
71 45 1
71 46 9
71 47 10
71 48 8
71 51 9
71 52 10
71 54 5
71 55 4
71 59 5
71 60 6
71 64 7
71 65 5
71 66 5
71 68 5
71 69 2
71 70 1
72 2 1
72 3 2
72 5 8
72 6 4
72 7 10
72 8 2
72 9 2
72 10 5
72 11 4
72 14 10
72 16 3
72 18 2
72 20 1
72 21 6
72 22 6
72 23 8
72 27 1
72 28 9
72 29 8
72 35 3
72 37 2
72 42 1
72 43 7
72 45 2
72 49 7
72 50 10
72 51 4
72 52 2
72 53 5
72 54 8
72 55 7
72 56 1
72 57 5
72 58 3
72 60 5
72 63 8
72 65 3
72 66 5
72 69 3
72 71 9
73 1 8
73 2 3
73 5 6
73 6 2
73 7 1
73 8 5
73 9 8
73 11 10
73 13 6
73 14 3
73 20 1
73 21 10
73 23 3
73 25 6
73 26 9
73 28 8
73 29 1
73 30 2
73 32 8
73 33 10
73 36 3
73 38 3
73 39 8
73 43 1
73 45 5
73 46 8
73 47 4
73 49 5
73 50 6
73 51 3
73 62 5
73 70 9
74 4 2
74 5 9
74 6 6
74 9 9
74 11 3
74 13 9
74 15 2
74 16 3
74 20 1
74 21 5
74 22 7
74 25 5
74 26 6
74 29 4
74 30 1
74 35 1
74 36 4
74 38 7
74 41 8
74 43 5
74 45 9
74 46 9
74 47 7
74 50 1
74 51 2
74 52 9
74 53 6
74 55 2
74 57 9
74 59 1
74 62 1
74 65 8
74 66 9
74 68 3
74 70 8
74 71 6
74 73 8
